133815
438 437 421 422 423 424 425 436 435 434 29 28 35 27 36 37 38 39 40 41 42 60 61 62 63 64 65 66 68 67 76 69 77 78 79 80 81 82 83 84 85 57 56 55 54 52 53 50 49 51 48 47 45 46 15 16 17 18 19 20 21 22 23 24 25 26 0 1 2 3 4 5 6 7 8 9 408 407 10 405 406 409 410 411 412 413 414 415 416 417 418 419 420 391 392 393 394 350 351 352 353 390 389 388 387 386 357 356 355 354 328 327 329 330 331 332 333 334 335 336 337 338 339 340 341 343 342 402 401 400 399 344 345 346 347 348 349 395 396 397 398 403 404 11 12 13 14 44 43 58 59 93 95 96 94 120 91 89 88 87 86 90 92 97 98 100 101 103 104 102 99 118 119 124 123 121 122 125 126 127 117 116 105 106 115 114 113 112 131 130 129 128 149 148 147 154 153 152 151 150 200 199 198 197 195 196 194 155 193 192 190 191 156 146 145 110 111 75 73 72 71 74 34 107 108 109 144 143 158 159 160 142 141 133 132 161 162 140 139 138 137 163 164 165 166 168 169 171 172 170 173 174 176 178 179 208 209 210 211 212 213 214 215 216 217 167 218 175 177 180 181 182 183 184 185 186 202 203 204 205 206 207 187 157 188 189 201 385 384 383 382 381 380 379 364 363 362 361 360 359 358 325 324 323 322 321 320 319 298 297 296 295 294 293 292 291 290 289 280 273 272 271 270 257 258 242 243 239 238 237 244 269 268 278 279 281 282 313 312 310 309 311 308 307 305 304 306 303 302 300 299 301 366 365 367 368 369 370 371 372 373 378 426 427 433 31 30 32 428 377 376 429 430 375 374 314 315 316 317 285 286 287 275 276 274 264 263 265 260 261 262 259 266 267 277 283 284 318 432 431 33 70 136 135 134 219 223 222 221 220 224 255 250 249 247 248 233 234 232 231 228 236 246 245 251 225 226 235 252 288 326 256 254 253 241 240 230 229 227 
